param n := 249;
param c := 1000;
param : V : p w :=
   0	  96	 375
   1	  20	 275
   2	  77	 350
   3	   5	 486
   4	  29	 256
   5	  11	 258
   6	  77	 466
   7	  26	 261
   8	  29	 273
   9	  58	 479
  10	  40	 254
  11	  34	 267
  12	   9	 425
  13	  89	 254
  14	  39	 321
  15	  23	 498
  16	  34	 250
  17	   5	 252
  18	  17	 383
  19	  38	 273
  20	  35	 344
  21	  33	 452
  22	  99	 270
  23	  73	 278
  24	   3	 447
  25	  35	 258
  26	  33	 295
  27	  66	 387
  28	  92	 305
  29	  38	 308
  30	  67	 496
  31	  59	 250
  32	  34	 254
  33	  31	 433
  34	  78	 269
  35	  83	 298
  36	  90	 499
  37	  74	 250
  38	  21	 251
  39	  87	 415
  40	  53	 283
  41	  87	 302
  42	  87	 480
  43	  81	 255
  44	  60	 265
  45	  79	 374
  46	   5	 280
  47	  48	 346
  48	  47	 498
  49	   1	 250
  50	  45	 252
  51	  87	 365
  52	  85	 286
  53	  61	 349
  54	  95	 420
  55	  37	 258
  56	  27	 322
  57	  40	 353
  58	  90	 301
  59	 100	 346
  60	  31	 467
  61	  26	 257
  62	  78	 276
  63	  36	 374
  64	  70	 264
  65	  79	 362
  66	  46	 401
  67	  39	 282
  68	   7	 317
  69	  79	 413
  70	  96	 265
  71	  95	 322
  72	   4	 374
  73	  61	 266
  74	  88	 360
  75	   4	 467
  76	  85	 252
  77	  47	 281
  78	  14	 359
  79	   9	 319
  80	  82	 322
  81	  42	 448
  82	  58	 258
  83	  53	 294
  84	  83	 427
  85	   9	 253
  86	   5	 320
  87	  26	 453
  88	  83	 253
  89	  15	 294
  90	  58	 483
  91	  64	 254
  92	  37	 263
  93	  35	 448
  94	  75	 256
  95	  48	 296
  96	 100	 459
  97	  43	 254
  98	  84	 287
  99	  44	 403
 100	  81	 294
 101	  39	 303
 102	  53	 498
 103	  53	 250
 104	  60	 252
 105	  58	 460
 106	  13	 253
 107	  33	 287
 108	  18	 409
 109	  30	 269
 110	 100	 322
 111	   8	 475
 112	  10	 252
 113	 100	 273
 114	  34	 371
 115	  42	 284
 116	  26	 345
 117	  25	 439
 118	  49	 275
 119	  64	 286
 120	  87	 474
 121	  48	 255
 122	  24	 271
 123	  68	 410
 124	  75	 255
 125	  13	 335
 126	  15	 396
 127	  25	 261
 128	  39	 343
 129	  35	 446
 130	  31	 260
 131	  42	 294
 132	  37	 408
 133	  92	 257
 134	  10	 335
 135	  41	 486
 136	  94	 251
 137	  78	 263
 138	  99	 355
 139	 100	 266
 140	  53	 379
 141	  10	 461
 142	  40	 253
 143	  57	 286
 144	  62	 481
 145	  85	 255
 146	  81	 264
 147	   6	 475
 148	  35	 258
 149	  28	 267
 150	  86	 401
 151	  62	 259
 152	  98	 340
 153	  43	 461
 154	  23	 262
 155	  83	 277
 156	  78	 423
 157	  27	 281
 158	  12	 296
 159	  59	 440
 160	  24	 252
 161	  90	 308
 162	  63	 378
 163	  75	 254
 164	   8	 368
 165	   9	 488
 166	  97	 250
 167	  30	 262
 168	  42	 421
 169	  50	 276
 170	  73	 303
 171	  10	 445
 172	  92	 272
 173	  60	 283
 174	  90	 358
 175	  92	 252
 176	  71	 390
 177	  72	 461
 178	  77	 250
 179	  92	 289
 180	  74	 351
 181	  59	 251
 182	  15	 398
 183	  51	 397
 184	  86	 285
 185	  71	 318
 186	  80	 482
 187	  46	 250
 188	  67	 268
 189	  12	 476
 190	  63	 255
 191	  39	 269
 192	  52	 400
 193	  52	 285
 194	  39	 315
 195	  32	 442
 196	  35	 253
 197	  65	 305
 198	  23	 483
 199	  50	 252
 200	  20	 265
 201	  33	 476
 202	  58	 250
 203	  35	 274
 204	  77	 451
 205	  14	 268
 206	  97	 281
 207	  32	 445
 208	  68	 259
 209	  60	 296
 210	  26	 460
 211	  97	 251
 212	   2	 289
 213	  84	 414
 214	  35	 261
 215	  55	 325
 216	  35	 455
 217	  46	 267
 218	  57	 278
 219	  16	 429
 220	  20	 271
 221	  82	 300
 222	  95	 467
 223	  22	 263
 224	  97	 270
 225	  18	 498
 226	  66	 250
 227	  29	 252
 228	  91	 498
 229	  78	 250
 230	  81	 252
 231	  49	 351
 232	  32	 263
 233	  51	 386
 234	  69	 427
 235	  35	 256
 236	  53	 317
 237	  28	 421
 238	   7	 262
 239	  20	 317
 240	  36	 409
 241	  25	 254
 242	  39	 337
 243	  91	 468
 244	  64	 263
 245	  25	 269
 246	  18	 458
 247	  88	 252
 248	  85	 290
;

set E :=
   0	   7
   0	  11
   0	  15
   0	  16
   0	  18
   0	  26
   0	  27
   0	  36
   0	  45
   0	  47
   0	  70
   0	  73
   0	  87
   0	  97
   0	 118
   0	 132
   0	 139
   0	 148
   0	 151
   0	 176
   0	 181
   0	 188
   0	 234
   0	 242
   1	  22
   1	  29
   1	  42
   1	  70
   1	  76
   1	  95
   1	  96
   1	 121
   1	 130
   1	 136
   1	 138
   1	 169
   1	 194
   1	 198
   1	 205
   1	 206
   1	 213
   1	 214
   1	 226
   1	 237
   1	 242
   1	 248
   2	   4
   2	  10
   2	  12
   2	  15
   2	  19
   2	  30
   2	  45
   2	  46
   2	  47
   2	  60
   2	  73
   2	  78
   2	  79
   2	  83
   2	  85
   2	  88
   2	  92
   2	 109
   2	 110
   2	 121
   2	 124
   2	 125
   2	 144
   2	 160
   2	 167
   2	 168
   2	 177
   2	 182
   2	 185
   2	 187
   2	 205
   2	 207
   2	 221
   2	 224
   2	 226
   2	 248
   3	   8
   3	  10
   3	  14
   3	  16
   3	  21
   3	  75
   3	  91
   3	  93
   3	 116
   3	 125
   3	 126
   3	 132
   3	 142
   3	 149
   3	 152
   3	 158
   3	 160
   3	 173
   3	 177
   3	 178
   3	 220
   3	 229
   3	 243
   4	  41
   4	  64
   4	  73
   4	  88
   4	 139
   4	 160
   4	 162
   4	 164
   4	 174
   4	 177
   4	 183
   4	 185
   4	 200
   4	 205
   4	 207
   4	 209
   4	 215
   4	 227
   4	 231
   4	 234
   4	 235
   4	 238
   4	 244
   5	  14
   5	  22
   5	  24
   5	  44
   5	  46
   5	  49
   5	  50
   5	  64
   5	  89
   5	 100
   5	 119
   5	 125
   5	 136
   5	 144
   5	 152
   5	 156
   5	 164
   5	 170
   5	 223
   5	 224
   5	 233
   5	 242
   6	  32
   6	  41
   6	  42
   6	  52
   6	  54
   6	  60
   6	  89
   6	  98
   6	 106
   6	 111
   6	 119
   6	 129
   6	 130
   6	 132
   6	 136
   6	 153
   6	 160
   6	 177
   6	 201
   6	 212
   6	 216
   6	 217
   6	 234
   6	 239
   6	 244
   6	 248
   7	  10
   7	  13
   7	  30
   7	  31
   7	  32
   7	  45
   7	  65
   7	  90
   7	 103
   7	 104
   7	 116
   7	 120
   7	 129
   7	 140
   7	 143
   7	 145
   7	 150
   7	 151
   7	 153
   7	 158
   7	 165
   7	 168
   7	 196
   7	 212
   7	 233
   7	 236
   8	  12
   8	  17
   8	  26
   8	  29
   8	  31
   8	  32
   8	  35
   8	  39
   8	  44
   8	  48
   8	  59
   8	  63
   8	  77
   8	  80
   8	  86
   8	  88
   8	 105
   8	 107
   8	 117
   8	 130
   8	 153
   8	 161
   8	 179
   8	 191
   8	 208
   8	 222
   8	 223
   9	  10
   9	  15
   9	  22
   9	  24
   9	  36
   9	  37
   9	  46
   9	  61
   9	  68
   9	 117
   9	 118
   9	 121
   9	 141
   9	 142
   9	 144
   9	 147
   9	 150
   9	 151
   9	 161
   9	 163
   9	 180
   9	 189
   9	 192
   9	 198
   9	 203
   9	 207
   9	 218
   9	 226
   9	 234
   9	 239
   9	 240
   9	 246
  10	  12
  10	  69
  10	  90
  10	  93
  10	  97
  10	 101
  10	 104
  10	 108
  10	 136
  10	 150
  10	 154
  10	 160
  10	 161
  10	 162
  10	 178
  10	 180
  10	 188
  10	 195
  10	 203
  10	 236
  10	 237
  10	 238
  10	 243
  11	  13
  11	  17
  11	  30
  11	  36
  11	  41
  11	  46
  11	  47
  11	  54
  11	  60
  11	  67
  11	  73
  11	  86
  11	  90
  11	 105
  11	 126
  11	 132
  11	 171
  11	 175
  11	 187
  11	 206
  11	 207
  11	 215
  11	 218
  11	 229
  11	 230
  11	 231
  11	 245
  12	  16
  12	  17
  12	  20
  12	  24
  12	  27
  12	  30
  12	  32
  12	  39
  12	  55
  12	  60
  12	  68
  12	  79
  12	  92
  12	  93
  12	 101
  12	 107
  12	 121
  12	 147
  12	 155
  12	 156
  12	 164
  12	 192
  12	 193
  12	 202
  12	 210
  12	 226
  12	 227
  12	 231
  12	 233
  12	 241
  13	  15
  13	  21
  13	  22
  13	  28
  13	  29
  13	  43
  13	  50
  13	  53
  13	  60
  13	  73
  13	  93
  13	 102
  13	 115
  13	 121
  13	 135
  13	 158
  13	 166
  13	 174
  13	 177
  13	 186
  13	 215
  13	 216
  13	 222
  13	 233
  14	  24
  14	  27
  14	  33
  14	  43
  14	  44
  14	  52
  14	  70
  14	  79
  14	  85
  14	  91
  14	  92
  14	  94
  14	  98
  14	 100
  14	 116
  14	 162
  14	 164
  14	 167
  14	 169
  14	 171
  14	 174
  14	 186
  14	 218
  14	 223
  14	 248
  15	  18
  15	  50
  15	  57
  15	  61
  15	  92
  15	  95
  15	  97
  15	 107
  15	 110
  15	 118
  15	 119
  15	 124
  15	 132
  15	 134
  15	 139
  15	 148
  15	 153
  15	 154
  15	 161
  15	 169
  15	 182
  15	 190
  15	 215
  15	 224
  15	 227
  16	  24
  16	  28
  16	  34
  16	  48
  16	  52
  16	  62
  16	 110
  16	 125
  16	 140
  16	 163
  16	 176
  16	 177
  16	 187
  16	 191
  16	 210
  16	 228
  16	 233
  17	  23
  17	  27
  17	  32
  17	  34
  17	  43
  17	  60
  17	  64
  17	  77
  17	  86
  17	  98
  17	  99
  17	 103
  17	 107
  17	 111
  17	 130
  17	 133
  17	 151
  17	 156
  17	 157
  17	 166
  17	 177
  17	 178
  17	 182
  17	 184
  17	 189
  17	 194
  17	 213
  17	 216
  17	 223
  17	 235
  17	 236
  17	 239
  17	 240
  17	 241
  18	  25
  18	  26
  18	  61
  18	  62
  18	  64
  18	  79
  18	  81
  18	 103
  18	 111
  18	 112
  18	 131
  18	 133
  18	 138
  18	 143
  18	 146
  18	 154
  18	 160
  18	 161
  18	 168
  18	 178
  18	 228
  18	 233
  18	 239
  19	  36
  19	  45
  19	  51
  19	  58
  19	  68
  19	  77
  19	  80
  19	  89
  19	  94
  19	  95
  19	  96
  19	  99
  19	 104
  19	 122
  19	 137
  19	 159
  19	 177
  19	 178
  19	 209
  20	  24
  20	  50
  20	  54
  20	  58
  20	  60
  20	  61
  20	  67
  20	  68
  20	  70
  20	  73
  20	  81
  20	  88
  20	 104
  20	 113
  20	 141
  20	 163
  20	 167
  20	 168
  20	 169
  20	 183
  20	 189
  20	 223
  20	 224
  20	 226
  20	 239
  20	 248
  21	  62
  21	  67
  21	  91
  21	  93
  21	 115
  21	 127
  21	 132
  21	 139
  21	 159
  21	 160
  21	 162
  21	 191
  21	 218
  21	 232
  21	 234
  21	 237
  21	 248
  22	  30
  22	  31
  22	  36
  22	  52
  22	  72
  22	  91
  22	  98
  22	 102
  22	 104
  22	 112
  22	 113
  22	 120
  22	 133
  22	 137
  22	 144
  22	 151
  22	 153
  22	 164
  22	 167
  22	 179
  22	 187
  22	 190
  22	 212
  22	 220
  22	 227
  22	 236
  22	 238
  22	 239
  22	 244
  23	  39
  23	  40
  23	  51
  23	  56
  23	  80
  23	  84
  23	  85
  23	 115
  23	 116
  23	 125
  23	 137
  23	 143
  23	 145
  23	 153
  23	 156
  23	 157
  23	 167
  23	 168
  23	 178
  23	 180
  23	 183
  23	 195
  23	 205
  23	 211
  23	 224
  23	 246
  24	  25
  24	  31
  24	  35
  24	  37
  24	  60
  24	  71
  24	  78
  24	  79
  24	  98
  24	 100
  24	 103
  24	 107
  24	 114
  24	 116
  24	 122
  24	 125
  24	 132
  24	 137
  24	 151
  24	 161
  24	 174
  24	 182
  24	 186
  24	 190
  24	 194
  24	 198
  24	 218
  24	 226
  24	 232
  24	 240
  25	  30
  25	  32
  25	  49
  25	  55
  25	  84
  25	  89
  25	  94
  25	 102
  25	 113
  25	 119
  25	 127
  25	 132
  25	 136
  25	 145
  25	 159
  25	 161
  25	 164
  25	 186
  25	 192
  25	 209
  25	 222
  25	 226
  25	 227
  25	 234
  25	 247
  26	  32
  26	  33
  26	  35
  26	  38
  26	  61
  26	  82
  26	 106
  26	 114
  26	 116
  26	 122
  26	 130
  26	 131
  26	 143
  26	 145
  26	 152
  26	 155
  26	 157
  26	 167
  26	 176
  26	 193
  26	 210
  26	 214
  26	 222
  26	 240
  26	 245
  27	  33
  27	  40
  27	  42
  27	  45
  27	  52
  27	 115
  27	 128
  27	 137
  27	 145
  27	 156
  27	 159
  27	 162
  27	 164
  27	 166
  27	 171
  27	 178
  27	 184
  27	 190
  27	 205
  27	 206
  27	 209
  27	 210
  27	 228
  27	 243
  27	 248
  28	  31
  28	  45
  28	  47
  28	  50
  28	  58
  28	  67
  28	  68
  28	  74
  28	  95
  28	 103
  28	 118
  28	 125
  28	 144
  28	 149
  28	 153
  28	 166
  28	 180
  28	 190
  28	 200
  28	 201
  28	 216
  28	 222
  28	 223
  28	 244
  28	 245
  29	  40
  29	  55
  29	  58
  29	  62
  29	  66
  29	  71
  29	  86
  29	  89
  29	 108
  29	 121
  29	 134
  29	 158
  29	 164
  29	 175
  29	 203
  29	 207
  29	 213
  29	 223
  29	 228
  29	 232
  29	 236
  29	 241
  29	 243
  30	  40
  30	  44
  30	  52
  30	  53
  30	  61
  30	  71
  30	 100
  30	 102
  30	 122
  30	 124
  30	 129
  30	 131
  30	 138
  30	 149
  30	 152
  30	 177
  30	 183
  30	 189
  30	 196
  30	 209
  30	 210
  30	 230
  30	 243
  30	 244
  30	 245
  30	 246
  31	  38
  31	  54
  31	  74
  31	  78
  31	  97
  31	 100
  31	 125
  31	 131
  31	 143
  31	 156
  31	 158
  31	 162
  31	 164
  31	 168
  31	 196
  31	 198
  31	 214
  31	 220
  31	 228
  31	 237
  31	 242
  32	  39
  32	  57
  32	  68
  32	  75
  32	  85
  32	  90
  32	  95
  32	  98
  32	 103
  32	 120
  32	 123
  32	 135
  32	 162
  32	 166
  32	 189
  32	 195
  32	 196
  32	 211
  32	 221
  32	 226
  32	 229
  33	  42
  33	  72
  33	  88
  33	  89
  33	  92
  33	 112
  33	 139
  33	 153
  33	 154
  33	 174
  33	 196
  33	 205
  33	 211
  33	 216
  33	 230
  33	 248
  34	  56
  34	  62
  34	  66
  34	  76
  34	  88
  34	  90
  34	  91
  34	  94
  34	  96
  34	 116
  34	 123
  34	 125
  34	 135
  34	 146
  34	 169
  34	 180
  34	 199
  34	 202
  34	 204
  34	 224
  34	 239
  34	 241
  34	 247
  35	  39
  35	  54
  35	  67
  35	 116
  35	 123
  35	 124
  35	 129
  35	 135
  35	 146
  35	 148
  35	 156
  35	 168
  35	 209
  36	  39
  36	  51
  36	  55
  36	  79
  36	  90
  36	  99
  36	 108
  36	 110
  36	 130
  36	 134
  36	 141
  36	 142
  36	 145
  36	 158
  36	 174
  36	 178
  36	 196
  36	 198
  36	 203
  36	 204
  36	 205
  36	 217
  36	 220
  37	  49
  37	  51
  37	  59
  37	  65
  37	  66
  37	  69
  37	  73
  37	  78
  37	 142
  37	 143
  37	 166
  37	 182
  37	 202
  37	 211
  37	 224
  38	  43
  38	  44
  38	  45
  38	  49
  38	  62
  38	  69
  38	  72
  38	  79
  38	  90
  38	  91
  38	 121
  38	 125
  38	 126
  38	 136
  38	 138
  38	 147
  38	 157
  38	 163
  38	 176
  38	 179
  38	 200
  38	 206
  38	 218
  39	  49
  39	  53
  39	  54
  39	  79
  39	  80
  39	 117
  39	 131
  39	 132
  39	 136
  39	 145
  39	 148
  39	 156
  39	 175
  39	 179
  39	 199
  39	 222
  39	 230
  40	  53
  40	  80
  40	  83
  40	  84
  40	  90
  40	  98
  40	 108
  40	 128
  40	 133
  40	 138
  40	 145
  40	 147
  40	 166
  40	 183
  40	 188
  40	 194
  40	 210
  40	 218
  40	 226
  40	 228
  40	 248
  41	  62
  41	  69
  41	  97
  41	 115
  41	 145
  41	 158
  41	 163
  41	 166
  41	 173
  41	 174
  41	 186
  41	 202
  41	 208
  41	 217
  41	 219
  41	 222
  41	 224
  41	 235
  41	 245
  42	  57
  42	  61
  42	  64
  42	  66
  42	  67
  42	  76
  42	  80
  42	  88
  42	  89
  42	 108
  42	 136
  42	 138
  42	 161
  42	 164
  42	 166
  42	 171
  42	 174
  42	 190
  42	 201
  42	 209
  42	 236
  42	 237
  43	  46
  43	  67
  43	  72
  43	  84
  43	 125
  43	 127
  43	 135
  43	 156
  43	 159
  43	 172
  43	 173
  43	 178
  43	 181
  43	 209
  43	 218
  43	 223
  43	 227
  43	 237
  43	 242
  44	  50
  44	  59
  44	  91
  44	  97
  44	 100
  44	 112
  44	 123
  44	 136
  44	 148
  44	 165
  44	 195
  44	 197
  44	 203
  44	 214
  44	 225
  44	 228
  44	 235
  44	 241
  44	 242
  45	  47
  45	  51
  45	  52
  45	  55
  45	  56
  45	  58
  45	  60
  45	  70
  45	  82
  45	  97
  45	 111
  45	 116
  45	 121
  45	 122
  45	 127
  45	 142
  45	 153
  45	 154
  45	 158
  45	 163
  45	 178
  45	 186
  45	 199
  45	 209
  45	 213
  45	 222
  45	 228
  45	 233
  45	 238
  45	 243
  46	  50
  46	  56
  46	  66
  46	  67
  46	  69
  46	  80
  46	 110
  46	 128
  46	 133
  46	 145
  46	 152
  46	 153
  46	 160
  46	 161
  46	 167
  46	 170
  46	 171
  46	 177
  46	 181
  46	 185
  46	 189
  46	 201
  46	 204
  46	 207
  46	 216
  47	  51
  47	  72
  47	  75
  47	  77
  47	  79
  47	  94
  47	  96
  47	  99
  47	 103
  47	 120
  47	 143
  47	 148
  47	 149
  47	 172
  47	 178
  47	 179
  47	 185
  47	 188
  47	 197
  47	 202
  47	 203
  47	 217
  47	 221
  47	 223
  47	 225
  47	 243
  48	  61
  48	  76
  48	  77
  48	  80
  48	  89
  48	 101
  48	 104
  48	 111
  48	 115
  48	 119
  48	 128
  48	 141
  48	 148
  48	 153
  48	 159
  48	 176
  48	 181
  48	 182
  48	 194
  48	 197
  48	 205
  48	 214
  49	  50
  49	  73
  49	  74
  49	  88
  49	  95
  49	 106
  49	 123
  49	 149
  49	 152
  49	 157
  49	 161
  49	 175
  49	 180
  49	 196
  49	 218
  49	 225
  50	  53
  50	  60
  50	  64
  50	  77
  50	 101
  50	 117
  50	 120
  50	 127
  50	 130
  50	 136
  50	 167
  50	 187
  50	 231
  50	 240
  50	 241
  50	 244
  51	  59
  51	  78
  51	  86
  51	  87
  51	  90
  51	  91
  51	  94
  51	  96
  51	 110
  51	 121
  51	 124
  51	 151
  51	 152
  51	 153
  51	 176
  51	 179
  51	 184
  51	 200
  51	 204
  51	 211
  51	 238
  51	 247
  52	  54
  52	  57
  52	  59
  52	  66
  52	  92
  52	  93
  52	 101
  52	 103
  52	 117
  52	 129
  52	 136
  52	 143
  52	 145
  52	 162
  52	 193
  52	 206
  52	 211
  52	 214
  52	 225
  52	 244
  53	  54
  53	  57
  53	  63
  53	  79
  53	  80
  53	 119
  53	 120
  53	 128
  53	 131
  53	 167
  53	 171
  53	 176
  53	 189
  53	 195
  53	 203
  53	 216
  53	 223
  54	  75
  54	  76
  54	  77
  54	  80
  54	  95
  54	 109
  54	 126
  54	 131
  54	 136
  54	 139
  54	 149
  54	 157
  54	 169
  54	 181
  54	 189
  54	 199
  54	 200
  54	 209
  54	 212
  54	 229
  54	 231
  54	 236
  55	  64
  55	  69
  55	  71
  55	  72
  55	  91
  55	 103
  55	 115
  55	 124
  55	 130
  55	 155
  55	 164
  55	 185
  55	 188
  55	 193
  55	 199
  55	 212
  55	 214
  55	 215
  55	 221
  55	 227
  55	 230
  55	 231
  55	 238
  56	  60
  56	  63
  56	  70
  56	  85
  56	  97
  56	 101
  56	 123
  56	 151
  56	 164
  56	 165
  56	 178
  56	 181
  56	 189
  56	 202
  56	 204
  56	 210
  56	 229
  56	 231
  56	 234
  56	 236
  57	  81
  57	  92
  57	  94
  57	 108
  57	 112
  57	 133
  57	 136
  57	 146
  57	 148
  57	 157
  57	 175
  57	 181
  57	 185
  57	 208
  57	 224
  57	 230
  57	 232
  58	 100
  58	 105
  58	 110
  58	 112
  58	 117
  58	 126
  58	 134
  58	 142
  58	 149
  58	 155
  58	 157
  58	 185
  58	 186
  58	 197
  58	 198
  58	 216
  58	 233
  58	 245
  58	 247
  59	  65
  59	  75
  59	  83
  59	  97
  59	 102
  59	 104
  59	 105
  59	 107
  59	 110
  59	 113
  59	 134
  59	 148
  59	 157
  59	 167
  59	 171
  59	 185
  59	 186
  59	 192
  59	 196
  59	 199
  59	 200
  59	 212
  59	 225
  59	 232
  59	 244
  59	 247
  60	  63
  60	  65
  60	  67
  60	  68
  60	  87
  60	  91
  60	 103
  60	 111
  60	 114
  60	 118
  60	 129
  60	 142
  60	 146
  60	 149
  60	 151
  60	 153
  60	 163
  60	 181
  60	 189
  60	 226
  61	  92
  61	  99
  61	 125
  61	 136
  61	 147
  61	 149
  61	 167
  61	 170
  61	 194
  61	 212
  61	 235
  62	  75
  62	 109
  62	 116
  62	 123
  62	 129
  62	 135
  62	 157
  62	 167
  62	 170
  62	 173
  62	 185
  62	 204
  62	 208
  62	 219
  62	 224
  62	 237
  62	 240
  62	 243
  62	 247
  62	 248
  63	  69
  63	  88
  63	 104
  63	 106
  63	 117
  63	 138
  63	 155
  63	 156
  63	 159
  63	 168
  63	 172
  63	 188
  63	 199
  63	 221
  63	 244
  64	  78
  64	  80
  64	  88
  64	  90
  64	 102
  64	 107
  64	 108
  64	 132
  64	 134
  64	 174
  64	 184
  64	 187
  64	 188
  64	 190
  64	 198
  64	 202
  64	 204
  64	 229
  64	 234
  64	 235
  64	 239
  65	  67
  65	  71
  65	  80
  65	  92
  65	 108
  65	 111
  65	 122
  65	 123
  65	 130
  65	 134
  65	 137
  65	 146
  65	 173
  65	 183
  65	 211
  65	 213
  65	 239
  65	 243
  66	  75
  66	  84
  66	  90
  66	 130
  66	 136
  66	 146
  66	 174
  66	 188
  66	 197
  66	 206
  66	 210
  66	 218
  66	 229
  66	 238
  66	 243
  67	  95
  67	  98
  67	 111
  67	 129
  67	 134
  67	 139
  67	 161
  67	 163
  67	 176
  67	 191
  67	 196
  67	 205
  67	 228
  67	 232
  67	 235
  67	 241
  68	  79
  68	  83
  68	  94
  68	 101
  68	 102
  68	 103
  68	 117
  68	 145
  68	 151
  68	 152
  68	 171
  68	 173
  68	 192
  68	 201
  68	 203
  68	 214
  68	 222
  68	 233
  68	 236
  68	 240
  69	  84
  69	  91
  69	  97
  69	  98
  69	 106
  69	 107
  69	 124
  69	 138
  69	 149
  69	 171
  69	 176
  69	 177
  69	 211
  69	 217
  69	 218
  69	 241
  69	 247
  70	  84
  70	  91
  70	  96
  70	 103
  70	 127
  70	 131
  70	 149
  70	 151
  70	 165
  70	 191
  70	 198
  70	 201
  70	 204
  70	 226
  70	 236
  70	 237
  70	 247
  71	  99
  71	 103
  71	 106
  71	 109
  71	 122
  71	 125
  71	 134
  71	 168
  71	 178
  71	 182
  71	 192
  71	 208
  71	 219
  71	 229
  71	 233
  72	  74
  72	  77
  72	  86
  72	 103
  72	 114
  72	 118
  72	 134
  72	 135
  72	 136
  72	 139
  72	 146
  72	 153
  72	 208
  72	 211
  72	 220
  72	 225
  72	 228
  72	 246
  73	  83
  73	  84
  73	  86
  73	 104
  73	 106
  73	 123
  73	 128
  73	 132
  73	 149
  73	 151
  73	 153
  73	 157
  73	 164
  73	 173
  73	 179
  73	 192
  73	 208
  73	 220
  73	 222
  73	 231
  73	 238
  74	 111
  74	 125
  74	 129
  74	 131
  74	 136
  74	 141
  74	 142
  74	 150
  74	 151
  74	 152
  74	 154
  74	 162
  74	 171
  74	 175
  74	 178
  74	 184
  74	 194
  74	 203
  74	 216
  74	 229
  74	 231
  74	 243
  75	  76
  75	  78
  75	  82
  75	  84
  75	  86
  75	 113
  75	 129
  75	 143
  75	 146
  75	 147
  75	 150
  75	 160
  75	 165
  75	 175
  75	 202
  75	 203
  75	 214
  75	 222
  75	 223
  76	  91
  76	  94
  76	 104
  76	 122
  76	 127
  76	 136
  76	 156
  76	 176
  76	 188
  76	 230
  76	 238
  76	 240
  77	  83
  77	  92
  77	 102
  77	 124
  77	 127
  77	 131
  77	 171
  77	 201
  77	 214
  77	 224
  77	 242
  78	  86
  78	 119
  78	 149
  78	 180
  78	 185
  78	 191
  78	 195
  78	 196
  78	 204
  78	 210
  78	 221
  78	 232
  78	 234
  78	 240
  79	  81
  79	  95
  79	 103
  79	 108
  79	 109
  79	 112
  79	 116
  79	 126
  79	 128
  79	 161
  79	 166
  79	 177
  79	 180
  79	 182
  79	 202
  79	 203
  79	 221
  79	 226
  79	 230
  79	 240
  79	 243
  79	 248
  80	  85
  80	  87
  80	  96
  80	 108
  80	 120
  80	 125
  80	 132
  80	 143
  80	 146
  80	 154
  80	 160
  80	 164
  80	 166
  80	 170
  80	 171
  80	 176
  80	 179
  80	 197
  80	 203
  80	 212
  80	 229
  80	 240
  80	 248
  81	  82
  81	  97
  81	 108
  81	 125
  81	 144
  81	 145
  81	 146
  81	 148
  81	 153
  81	 173
  81	 181
  81	 196
  81	 197
  81	 199
  81	 204
  81	 205
  81	 213
  81	 214
  81	 218
  81	 229
  82	  87
  82	 114
  82	 123
  82	 126
  82	 137
  82	 151
  82	 171
  82	 190
  82	 201
  82	 203
  82	 210
  82	 212
  82	 215
  82	 217
  82	 234
  83	  96
  83	 115
  83	 116
  83	 129
  83	 151
  83	 153
  83	 158
  83	 162
  83	 166
  83	 174
  83	 191
  83	 207
  83	 242
  83	 246
  84	 101
  84	 107
  84	 118
  84	 119
  84	 140
  84	 146
  84	 195
  84	 200
  84	 221
  84	 244
  85	  86
  85	  91
  85	  94
  85	 110
  85	 120
  85	 141
  85	 149
  85	 154
  85	 209
  85	 223
  85	 224
  85	 232
  85	 237
  85	 240
  85	 244
  86	  97
  86	 117
  86	 124
  86	 149
  86	 159
  86	 160
  86	 173
  86	 180
  86	 192
  86	 204
  86	 225
  86	 230
  86	 237
  86	 241
  87	  94
  87	 125
  87	 132
  87	 135
  87	 137
  87	 146
  87	 151
  87	 200
  87	 217
  87	 227
  87	 232
  87	 241
  88	  96
  88	 100
  88	 120
  88	 127
  88	 137
  88	 140
  88	 149
  88	 169
  88	 182
  88	 183
  88	 184
  88	 232
  89	 113
  89	 114
  89	 147
  89	 152
  89	 165
  89	 172
  89	 182
  89	 215
  89	 217
  89	 223
  89	 224
  89	 230
  89	 236
  89	 241
  89	 242
  90	  93
  90	  98
  90	 100
  90	 114
  90	 126
  90	 145
  90	 146
  90	 150
  90	 152
  90	 154
  90	 155
  90	 158
  90	 162
  90	 175
  90	 184
  90	 187
  90	 201
  90	 202
  90	 221
  90	 226
  90	 239
  90	 240
  90	 244
  91	 105
  91	 113
  91	 117
  91	 118
  91	 119
  91	 120
  91	 131
  91	 144
  91	 145
  91	 154
  91	 156
  91	 158
  91	 220
  91	 236
  91	 240
  91	 246
  92	  98
  92	 100
  92	 101
  92	 108
  92	 118
  92	 120
  92	 123
  92	 126
  92	 141
  92	 143
  92	 149
  92	 153
  92	 154
  92	 159
  92	 172
  92	 175
  92	 190
  92	 206
  92	 207
  92	 222
  92	 236
  92	 239
  93	  94
  93	  97
  93	 102
  93	 109
  93	 112
  93	 116
  93	 149
  93	 154
  93	 169
  93	 178
  93	 181
  93	 186
  93	 194
  93	 209
  93	 212
  93	 222
  93	 223
  93	 228
  93	 230
  93	 236
  93	 243
  94	  98
  94	 113
  94	 121
  94	 145
  94	 148
  94	 152
  94	 166
  94	 181
  94	 186
  94	 196
  94	 209
  94	 224
  94	 228
  94	 238
  94	 239
  94	 243
  95	  97
  95	  99
  95	 144
  95	 148
  95	 149
  95	 150
  95	 180
  95	 181
  95	 193
  95	 194
  95	 196
  95	 205
  95	 216
  95	 220
  95	 228
  95	 232
  96	 101
  96	 107
  96	 109
  96	 112
  96	 118
  96	 120
  96	 123
  96	 126
  96	 147
  96	 157
  96	 184
  96	 198
  96	 213
  97	 105
  97	 114
  97	 115
  97	 125
  97	 148
  97	 149
  97	 152
  97	 153
  97	 169
  97	 180
  97	 200
  97	 201
  97	 218
  97	 244
  98	 118
  98	 123
  98	 133
  98	 151
  98	 153
  98	 157
  98	 158
  98	 159
  98	 189
  98	 192
  98	 196
  98	 198
  98	 199
  98	 202
  98	 240
  98	 242
  99	 103
  99	 138
  99	 166
  99	 168
  99	 172
  99	 189
  99	 191
  99	 208
  99	 209
  99	 210
  99	 212
  99	 220
  99	 221
  99	 232
  99	 240
  99	 245
 100	 121
 100	 130
 100	 135
 100	 138
 100	 153
 100	 162
 100	 164
 100	 195
 100	 211
 100	 217
 100	 221
 100	 243
 100	 244
 101	 103
 101	 111
 101	 126
 101	 134
 101	 141
 101	 151
 101	 157
 101	 187
 101	 189
 101	 195
 101	 197
 101	 200
 101	 209
 101	 211
 101	 232
 101	 241
 101	 242
 101	 244
 101	 246
 101	 247
 102	 133
 102	 151
 102	 152
 102	 167
 102	 173
 102	 183
 102	 186
 102	 191
 102	 196
 102	 202
 102	 213
 102	 219
 102	 239
 102	 242
 103	 111
 103	 114
 103	 115
 103	 128
 103	 138
 103	 141
 103	 155
 103	 189
 103	 215
 103	 237
 104	 109
 104	 111
 104	 117
 104	 142
 104	 144
 104	 151
 104	 153
 104	 155
 104	 157
 104	 162
 104	 177
 104	 179
 104	 181
 104	 188
 104	 210
 104	 211
 104	 212
 104	 227
 104	 245
 104	 247
 105	 123
 105	 128
 105	 131
 105	 140
 105	 156
 105	 185
 105	 195
 105	 209
 105	 211
 105	 225
 105	 234
 105	 247
 106	 111
 106	 121
 106	 125
 106	 127
 106	 148
 106	 157
 106	 160
 106	 195
 106	 200
 106	 206
 106	 211
 106	 223
 106	 232
 106	 241
 106	 248
 107	 135
 107	 138
 107	 144
 107	 148
 107	 159
 107	 164
 107	 184
 107	 192
 107	 202
 107	 210
 107	 214
 107	 220
 107	 222
 108	 109
 108	 115
 108	 116
 108	 117
 108	 139
 108	 151
 108	 157
 108	 182
 108	 184
 108	 191
 108	 196
 108	 201
 108	 209
 108	 214
 108	 235
 108	 239
 108	 244
 109	 117
 109	 139
 109	 140
 109	 152
 109	 164
 109	 194
 109	 198
 109	 202
 109	 248
 110	 113
 110	 115
 110	 117
 110	 131
 110	 144
 110	 159
 110	 178
 110	 196
 110	 223
 110	 230
 110	 231
 111	 122
 111	 129
 111	 131
 111	 150
 111	 195
 111	 206
 111	 214
 111	 229
 111	 235
 111	 243
 111	 247
 112	 113
 112	 116
 112	 122
 112	 125
 112	 152
 112	 160
 112	 176
 112	 177
 112	 179
 112	 181
 112	 182
 112	 190
 112	 200
 112	 212
 112	 214
 113	 127
 113	 132
 113	 135
 113	 145
 113	 147
 113	 153
 113	 159
 113	 165
 113	 171
 113	 195
 113	 198
 113	 217
 113	 218
 113	 228
 113	 235
 113	 243
 113	 245
 114	 122
 114	 124
 114	 125
 114	 133
 114	 145
 114	 158
 114	 159
 114	 160
 114	 164
 114	 175
 114	 177
 114	 204
 114	 211
 114	 221
 114	 223
 114	 231
 114	 237
 115	 116
 115	 118
 115	 123
 115	 125
 115	 132
 115	 142
 115	 146
 115	 150
 115	 165
 115	 174
 115	 177
 115	 182
 115	 184
 115	 187
 115	 194
 115	 233
 115	 239
 116	 146
 116	 166
 116	 183
 116	 184
 116	 189
 116	 192
 116	 202
 116	 211
 116	 226
 116	 232
 116	 239
 116	 241
 117	 119
 117	 124
 117	 131
 117	 138
 117	 157
 117	 168
 117	 186
 117	 198
 117	 216
 117	 219
 117	 223
 118	 125
 118	 150
 118	 165
 118	 192
 118	 195
 118	 198
 118	 211
 118	 230
 119	 145
 119	 154
 119	 159
 119	 161
 119	 169
 119	 170
 119	 173
 119	 202
 119	 207
 119	 216
 119	 217
 119	 225
 119	 229
 119	 235
 119	 239
 120	 121
 120	 124
 120	 129
 120	 143
 120	 172
 120	 201
 120	 207
 120	 210
 120	 241
 121	 125
 121	 151
 121	 156
 121	 161
 121	 163
 121	 178
 121	 181
 121	 203
 121	 236
 122	 132
 122	 151
 122	 154
 122	 159
 122	 163
 122	 170
 122	 174
 122	 191
 122	 192
 122	 204
 122	 205
 122	 206
 122	 231
 122	 244
 123	 127
 123	 128
 123	 141
 123	 150
 123	 153
 123	 154
 123	 172
 123	 183
 123	 190
 123	 193
 123	 197
 123	 200
 123	 213
 123	 215
 123	 218
 124	 135
 124	 144
 124	 147
 124	 154
 124	 155
 124	 163
 124	 165
 124	 177
 124	 211
 124	 222
 124	 227
 124	 239
 124	 246
 125	 134
 125	 141
 125	 150
 125	 159
 125	 161
 125	 168
 125	 171
 125	 175
 125	 199
 125	 204
 125	 211
 125	 213
 125	 216
 125	 219
 125	 233
 125	 238
 126	 127
 126	 132
 126	 134
 126	 138
 126	 142
 126	 154
 126	 162
 126	 190
 126	 193
 126	 200
 126	 202
 126	 208
 126	 210
 126	 215
 126	 235
 126	 245
 126	 248
 127	 128
 127	 130
 127	 150
 127	 159
 127	 163
 127	 175
 127	 188
 127	 204
 127	 209
 127	 211
 127	 230
 127	 244
 128	 133
 128	 143
 128	 149
 128	 153
 128	 158
 128	 169
 128	 204
 128	 216
 128	 221
 128	 225
 128	 236
 128	 237
 128	 247
 129	 131
 129	 161
 129	 167
 129	 206
 129	 207
 129	 222
 129	 231
 129	 238
 130	 145
 130	 146
 130	 155
 130	 159
 130	 178
 130	 183
 130	 189
 130	 193
 130	 225
 130	 242
 131	 151
 131	 157
 131	 164
 131	 178
 131	 185
 131	 190
 131	 208
 131	 219
 131	 229
 131	 235
 132	 142
 132	 146
 132	 159
 132	 166
 132	 168
 132	 187
 132	 191
 132	 208
 132	 217
 132	 221
 132	 229
 132	 236
 132	 242
 133	 138
 133	 171
 133	 182
 133	 200
 134	 135
 134	 142
 134	 150
 134	 172
 134	 175
 134	 184
 134	 196
 134	 201
 134	 214
 134	 216
 134	 221
 134	 237
 134	 238
 135	 148
 135	 162
 135	 166
 135	 186
 135	 205
 135	 225
 135	 238
 135	 239
 136	 137
 136	 147
 136	 155
 136	 157
 136	 173
 136	 180
 136	 183
 136	 198
 136	 204
 136	 209
 136	 240
 137	 149
 137	 159
 137	 184
 137	 195
 137	 211
 137	 223
 138	 154
 138	 160
 138	 176
 138	 178
 138	 190
 138	 194
 138	 205
 138	 208
 138	 220
 138	 227
 138	 230
 138	 231
 138	 234
 139	 144
 139	 151
 139	 176
 139	 186
 139	 190
 139	 208
 139	 217
 139	 234
 139	 238
 139	 241
 139	 246
 140	 141
 140	 147
 140	 159
 140	 170
 140	 171
 140	 172
 140	 173
 140	 180
 140	 194
 140	 200
 140	 225
 140	 228
 140	 230
 140	 242
 141	 150
 141	 163
 141	 166
 141	 169
 141	 190
 141	 207
 141	 208
 141	 214
 141	 217
 141	 242
 142	 171
 142	 173
 142	 177
 142	 212
 142	 214
 142	 218
 142	 223
 142	 238
 143	 145
 143	 154
 143	 155
 143	 156
 143	 157
 143	 179
 143	 186
 143	 205
 144	 182
 144	 194
 144	 197
 144	 204
 144	 223
 144	 225
 144	 231
 144	 237
 145	 151
 145	 155
 145	 169
 145	 171
 145	 188
 145	 194
 145	 203
 145	 205
 145	 229
 145	 233
 146	 157
 146	 165
 146	 173
 146	 182
 146	 193
 146	 205
 146	 227
 146	 228
 146	 229
 146	 244
 146	 245
 146	 247
 147	 152
 147	 158
 147	 161
 147	 162
 147	 182
 147	 191
 147	 192
 147	 202
 147	 220
 147	 229
 147	 232
 148	 151
 148	 158
 148	 162
 148	 167
 148	 177
 148	 178
 148	 183
 148	 198
 148	 203
 148	 208
 148	 231
 149	 150
 149	 151
 149	 154
 149	 159
 149	 169
 149	 172
 149	 173
 149	 192
 149	 194
 149	 201
 149	 203
 149	 206
 149	 216
 149	 223
 149	 241
 149	 246
 149	 247
 150	 155
 150	 166
 150	 171
 150	 175
 150	 177
 150	 179
 150	 183
 150	 230
 150	 245
 150	 247
 151	 160
 151	 161
 151	 162
 151	 163
 151	 174
 151	 176
 151	 185
 151	 187
 151	 192
 151	 225
 151	 239
 152	 175
 152	 181
 152	 194
 152	 210
 152	 213
 152	 217
 152	 218
 152	 228
 152	 232
 152	 234
 153	 161
 153	 168
 153	 170
 153	 171
 153	 183
 153	 188
 153	 190
 153	 206
 153	 211
 153	 215
 153	 216
 153	 221
 153	 238
 153	 245
 154	 169
 154	 173
 154	 177
 154	 178
 154	 185
 154	 198
 154	 208
 154	 213
 154	 229
 154	 245
 154	 246
 155	 157
 155	 182
 155	 183
 155	 207
 155	 239
 156	 172
 156	 176
 156	 181
 156	 225
 156	 238
 157	 164
 157	 175
 157	 178
 157	 181
 157	 196
 157	 197
 157	 202
 157	 205
 157	 208
 157	 216
 157	 228
 157	 237
 157	 242
 157	 246
 157	 247
 158	 167
 158	 178
 158	 180
 158	 216
 158	 235
 158	 239
 158	 240
 158	 244
 159	 164
 159	 175
 159	 213
 159	 227
 159	 230
 159	 241
 160	 185
 160	 192
 160	 194
 160	 218
 161	 190
 161	 209
 161	 243
 161	 245
 161	 247
 162	 168
 162	 177
 162	 178
 162	 187
 162	 205
 162	 213
 162	 217
 162	 220
 162	 237
 163	 171
 163	 188
 163	 201
 163	 215
 163	 234
 163	 244
 164	 165
 164	 178
 164	 181
 164	 184
 164	 192
 164	 203
 164	 218
 164	 221
 164	 222
 164	 232
 164	 233
 164	 235
 165	 201
 165	 206
 165	 230
 165	 231
 165	 237
 166	 225
 166	 226
 166	 227
 166	 239
 166	 244
 166	 246
 167	 182
 167	 192
 167	 202
 167	 204
 168	 171
 168	 181
 168	 182
 168	 186
 168	 199
 168	 206
 168	 217
 168	 220
 168	 236
 168	 245
 168	 248
 169	 170
 169	 191
 169	 230
 169	 248
 170	 183
 170	 198
 170	 206
 170	 209
 170	 210
 170	 218
 170	 231
 170	 244
 171	 182
 171	 191
 171	 212
 171	 218
 171	 236
 172	 178
 172	 182
 172	 186
 172	 198
 172	 208
 172	 233
 172	 246
 173	 209
 173	 210
 173	 224
 173	 232
 173	 235
 173	 237
 173	 240
 173	 244
 174	 195
 174	 208
 174	 218
 174	 237
 174	 241
 174	 248
 175	 193
 175	 218
 175	 245
 176	 183
 176	 184
 176	 191
 177	 179
 177	 181
 177	 191
 177	 204
 177	 214
 177	 235
 178	 189
 178	 193
 178	 198
 178	 202
 178	 209
 178	 221
 178	 222
 178	 246
 178	 247
 179	 184
 179	 192
 179	 196
 179	 201
 179	 211
 179	 227
 179	 228
 179	 237
 180	 182
 180	 200
 180	 208
 180	 228
 180	 236
 180	 247
 181	 190
 181	 192
 181	 194
 181	 196
 181	 197
 181	 204
 181	 215
 181	 229
 182	 189
 182	 197
 182	 203
 182	 221
 182	 233
 183	 196
 183	 215
 183	 246
 184	 190
 184	 196
 184	 197
 184	 215
 184	 222
 184	 231
 184	 236
 185	 208
 185	 209
 185	 223
 185	 225
 185	 226
 186	 206
 187	 200
 187	 203
 187	 213
 187	 237
 187	 242
 188	 203
 188	 212
 188	 213
 188	 215
 188	 230
 188	 232
 188	 233
 189	 194
 189	 202
 189	 212
 189	 230
 189	 238
 189	 239
 190	 194
 190	 217
 190	 219
 190	 220
 190	 221
 191	 193
 191	 207
 191	 215
 191	 219
 191	 231
 191	 235
 191	 238
 191	 241
 192	 200
 192	 201
 192	 224
 192	 240
 193	 194
 193	 195
 193	 205
 193	 241
 193	 242
 194	 212
 194	 218
 194	 222
 194	 224
 195	 205
 195	 207
 195	 209
 195	 236
 195	 240
 196	 200
 196	 223
 196	 232
 196	 242
 196	 246
 196	 248
 197	 219
 197	 222
 197	 247
 198	 228
 199	 202
 199	 218
 199	 229
 199	 245
 200	 207
 200	 215
 200	 228
 200	 241
 200	 242
 201	 208
 201	 211
 201	 222
 201	 226
 201	 233
 201	 244
 202	 208
 202	 209
 202	 214
 202	 224
 202	 246
 203	 204
 203	 206
 203	 217
 203	 236
 204	 206
 204	 211
 204	 222
 204	 225
 204	 233
 204	 237
 205	 228
 205	 234
 205	 238
 205	 240
 205	 248
 206	 210
 206	 214
 206	 218
 206	 223
 206	 233
 206	 243
 207	 215
 207	 223
 207	 232
 207	 240
 208	 212
 208	 239
 209	 231
 209	 248
 210	 228
 210	 232
 210	 235
 211	 221
 211	 247
 211	 248
 212	 213
 212	 217
 212	 238
 213	 218
 213	 226
 213	 229
 213	 241
 214	 216
 214	 221
 214	 222
 214	 236
 214	 241
 214	 248
 215	 246
 215	 247
 216	 219
 216	 229
 217	 220
 217	 226
 217	 238
 217	 241
 217	 245
 218	 246
 218	 248
 219	 226
 219	 234
 219	 237
 219	 238
 219	 241
 219	 245
 220	 229
 220	 240
 221	 238
 221	 240
 221	 244
 224	 227
 224	 237
 224	 241
 224	 243
 225	 238
 225	 242
 226	 227
 226	 244
 227	 245
 228	 232
 228	 241
 229	 233
 229	 247
 230	 235
 230	 241
 231	 239
 232	 238
 232	 244
 233	 234
 233	 235
 233	 241
 233	 244
 234	 237
 234	 245
 236	 244
 236	 247
 237	 239
 237	 245
 239	 245
 240	 242
 240	 247
 241	 245
 242	 248
 243	 247
 244	 245
 247	 248
;
